analyze/results_flowersnark/final_miplib_symretope_if_extended_generating_set_cpx_v802__settings_final_nopeek_norelabel_extend_norestarts__3__neos-1109824.mps.gz.sol
solution status: optimal solution found
objective value:                                  378
C0012                                               1 	(obj:17)
C0020                                               1 	(obj:23)
C0246                                               1 	(obj:10)
C0344                                               1 	(obj:10)
C0391                                               1 	(obj:29)
C0476                                               1 	(obj:19)
C0605                                               1 	(obj:6)
C0690                                               1 	(obj:34)
C0777                                               1 	(obj:16)
C1027                                               1 	(obj:5)
C1102                                               1 	(obj:5)
C1136                                               1 	(obj:14)
C1150                                               1 	(obj:22)
C1191                                               1 	(obj:5)
C1203                                               1 	(obj:25)
C1217                                               1 	(obj:28)
C1263                                               1 	(obj:22)
C1278                                               1 	(obj:9)
C1300                                               1 	(obj:0)
C1326                                               1 	(obj:30)
C1333                                               1 	(obj:3)
C1391                                               1 	(obj:43)
C1434                                               1 	(obj:3)
