analyze/results_flowersnark/final_miplib_symretope_if_extended_generating_set_cpx_v802__settings_final_nopeek_norelabel_extend_norestarts__3__neos-1109824.mps.gz.out
FILENAME:   /home/mcs001/s132664/testsets/IP/miplib2010/neos-1109824.mps.gz
SETTINGS:   settings_final_nopeek_norelabel_extend_norestarts
TIMELIMIT:  7200
OUTPUTNAME: final_miplib_symretope_if_extended_generating_set_cpx_v802__settings_final_nopeek_norelabel_extend_norestarts__3__
BINNAME:    bin/sbcs.linux.x86_64.gnu.opt.cpx
BASENAME:   neos-1109824.mps.gz
SEED:       3
@01 /home/mcs001/s132664/testsets/IP/miplib2010/neos-1109824.mps.gz ===========
@02 neos-1109824.mps.gz
@03 1686663634
SCIP version 8.0.2 [precision: 8 byte] [memory: block] [mode: optimized] [LP solver: CPLEX 20.1.0.0] [GitHash: 5f0473c]
Copyright (C) 2002-2022 Konrad-Zuse-Zentrum fuer Informationstechnik Berlin (ZIB)

Symretope propagation methods - (c) Jasper van Doornmalen, Christopher Hojny.
[GitHash: 2fd0484]

reading parameter file <../settings/settings_final_nopeek_norelabel_extend_norestarts.set> ...

Changed settings:
limits/time = 7200
limits/restarts = 0
misc/usesymmetry = 1
randomization/randomseedshift = 3
constraints/orbisack/sepafreq = -1
constraints/symresack/sepafreq = -1
propagating/symmetry/addsymresacks = TRUE
propagating/symmetry/detectsubgroups = FALSE
propagating/symmetry/relabelsymretopes = 0
propagating/symmetry/extendgenerators = TRUE
propagating/symmetry/ofsymcomptiming = 0
constraints/symretope/sepafreq = -1
constraints/symretope/peek = FALSE


solving problem ...

original problem has 1520 variables (1520 bin, 0 int, 0 impl, 0 cont) and 28979 constraints
presolving:
(round 1, exhaustive) 0 del vars, 19000 del conss, 0 add conss, 0 chg bounds, 0 chg sides, 0 chg coeffs, 0 upgd conss, 0 impls, 783 clqs
(round 2, exhaustive) 0 del vars, 19000 del conss, 0 add conss, 0 chg bounds, 0 chg sides, 0 chg coeffs, 9903 upgd conss, 0 impls, 783 clqs
   (1.0s) probing: 1000/1520 (65.8%) - 0 fixings, 0 aggregations, 51821 implications, 0 bound changes
   (1.0s) probing: 1001/1520 (65.9%) - 0 fixings, 0 aggregations, 51876 implications, 0 bound changes
   (1.0s) probing aborted: 1000/1000 successive useless probings
   (1.0s) symmetry computation started: requiring (bin +, int +, cont +), (fixed: bin -, int -, cont -)
   (1.0s) symmetry computation finished: 4 generators found (max: 1500, log10 of symmetry group size: 1.7)
(round 3, exhaustive) 0 del vars, 19000 del conss, 9 add conss, 0 chg bounds, 0 chg sides, 0 chg coeffs, 9903 upgd conss, 0 impls, 52659 clqs
presolving (4 rounds: 4 fast, 4 medium, 4 exhaustive):
 0 deleted vars, 19000 deleted constraints, 9 added constraints, 0 tightened bounds, 0 added holes, 0 changed sides, 0 changed coefficients
 0 implications, 52659 cliques
presolved problem has 1520 variables (1520 bin, 0 int, 0 impl, 0 cont) and 9988 constraints
    783 constraints of type <setppc>
     76 constraints of type <linear>
      7 constraints of type <orbisack>
      2 constraints of type <symretope>
   9120 constraints of type <logicor>
transformed objective value is always integral (scale: 1)
Presolving Time: 1.02

 time | node  | left  |LP iter|LP it/n|mem/heur|mdpt |vars |cons |rows |cuts |sepa|confs|strbr|  dualbound   | primalbound  |  gap   | compl. 
  1.2s|     1 |     0 |   137 |     - |    76M |   0 |1520 |  10k|9990 |   0 |  0 |  17 |   0 | 2.780000e+02 |      --      |    Inf | unknown
  1.5s|     1 |     0 |  1166 |     - |    77M |   0 |1520 |  10k|9996 |   6 |  1 |  17 |   0 | 2.780000e+02 |      --      |    Inf | unknown
  1.6s|     1 |     0 |  1183 |     - |    78M |   0 |1520 |  10k|9999 |   9 |  2 |  17 |   0 | 2.800000e+02 |      --      |    Inf | unknown
  1.8s|     1 |     0 |  1215 |     - |    79M |   0 |1520 |  10k|  10k|  39 |  3 |  25 |   0 | 2.840000e+02 |      --      |    Inf | unknown
  1.9s|     1 |     0 |  1272 |     - |    80M |   0 |1520 |  10k|  10k|  63 |  4 |  25 |   0 | 3.170000e+02 |      --      |    Inf | unknown
  2.1s|     1 |     0 |  1306 |     - |    82M |   0 |1520 |  10k|  10k|  78 |  5 |  25 |   0 | 3.415000e+02 |      --      |    Inf | unknown
  2.2s|     1 |     0 |  1330 |     - |    83M |   0 |1520 |  10k|  10k|  87 |  6 |  25 |   0 | 3.441667e+02 |      --      |    Inf | unknown
  2.4s|     1 |     0 |  1370 |     - |    85M |   0 |1520 |  10k|  10k|  99 |  7 |  25 |   0 | 3.460000e+02 |      --      |    Inf | unknown
  2.6s|     1 |     0 |  1400 |     - |    87M |   0 |1520 |  10k|  10k| 110 |  8 |  25 |   0 | 3.460000e+02 |      --      |    Inf | unknown
  2.8s|     1 |     0 |  1422 |     - |    89M |   0 |1520 |  10k|  10k| 122 |  9 |  25 |   0 | 3.460000e+02 |      --      |    Inf | unknown
  2.9s|     1 |     0 |  1445 |     - |    90M |   0 |1520 |  10k|  10k| 133 | 10 |  25 |   0 | 3.460000e+02 |      --      |    Inf | unknown
  2.9s|     1 |     0 |  1450 |     - |    91M |   0 |1520 |  10k|  10k| 134 | 11 |  27 |   0 | 3.460000e+02 |      --      |    Inf | unknown
  3.0s|     1 |     0 |  1455 |     - |    93M |   0 |1520 |  10k|  10k| 141 | 12 |  27 |   0 | 3.460000e+02 |      --      |    Inf | unknown
  3.0s|     1 |     0 |  1483 |     - |    94M |   0 |1520 |  10k|  10k| 148 | 13 |  27 |   0 | 3.460000e+02 |      --      |    Inf | unknown
  3.1s|     1 |     0 |  1490 |     - |    94M |   0 |1520 |  10k|  10k| 155 | 14 |  27 |   0 | 3.460000e+02 |      --      |    Inf | unknown
 time | node  | left  |LP iter|LP it/n|mem/heur|mdpt |vars |cons |rows |cuts |sepa|confs|strbr|  dualbound   | primalbound  |  gap   | compl. 
  3.1s|     1 |     0 |  1497 |     - |    95M |   0 |1520 |  10k|  10k| 159 | 15 |  27 |   0 | 3.460000e+02 |      --      |    Inf | unknown
  3.1s|     1 |     0 |  1505 |     - |    96M |   0 |1520 |  10k|  10k| 163 | 16 |  27 |   0 | 3.460000e+02 |      --      |    Inf | unknown
  3.2s|     1 |     0 |  1511 |     - |    97M |   0 |1520 |  10k|  10k| 166 | 17 |  33 |   0 | 3.460000e+02 |      --      |    Inf | unknown
  3.2s|     1 |     0 |  1535 |     - |    98M |   0 |1520 |  10k|  10k| 169 | 18 |  33 |   0 | 3.460000e+02 |      --      |    Inf | unknown
  3.3s|     1 |     0 |  1541 |     - |    99M |   0 |1520 |  10k|  10k| 174 | 19 |  34 |   0 | 3.460000e+02 |      --      |    Inf | unknown
d 4.3s|     1 |     0 |  3048 |     - |conflict|   0 |1520 |  10k|  10k|   0 | 19 |  36 |   0 | 3.460000e+02 | 3.840000e+02 |  10.98%| unknown
  4.4s|     1 |     0 |  3048 |     - |   101M |   0 |1520 |  10k|  10k| 174 | 19 |  36 |   0 | 3.460000e+02 | 3.840000e+02 |  10.98%| unknown
  4.4s|     1 |     0 |  3048 |     - |   101M |   0 |1520 |  10k|6099 | 174 | 19 |  36 |   0 | 3.460000e+02 | 3.840000e+02 |  10.98%| unknown
  4.4s|     1 |     0 |  3064 |     - |   102M |   0 |1520 |8273 |6102 | 177 | 20 |  36 |   0 | 3.460000e+02 | 3.840000e+02 |  10.98%| unknown
  4.4s|     1 |     0 |  3065 |     - |   102M |   0 |1520 |8272 |6103 | 178 | 21 |  36 |   0 | 3.460000e+02 | 3.840000e+02 |  10.98%| unknown
  4.7s|     1 |     2 |  3065 |     - |   102M |   0 |1520 |7894 |6103 | 178 | 21 |  36 |  26 | 3.472500e+02 | 3.840000e+02 |  10.58%| unknown
* 9.0s|    31 |     8 |  3943 |  79.6 |strongbr|  13 |1520 |7830 |6049 | 195 |  1 | 439 | 597 | 3.522500e+02 | 3.780000e+02 |   7.31%|  10.20%
 16.8s|   100 |    12 |  6360 |  48.5 |   125M |  15 |1520 |7734 |6065 | 288 |  6 |1368 |1437 | 3.640000e+02 | 3.780000e+02 |   3.85%|  43.00%
 20.9s|   200 |     9 |  8467 |  34.7 |   127M |  26 |1520 |7882 |6059 | 300 |  4 |1972 |1880 | 3.640000e+02 | 3.780000e+02 |   3.85%|  62.45%
 23.7s|   300 |     9 | 10055 |  28.4 |   128M |  29 |1520 |8056 |6069 | 317 |  1 |2406 |2184 | 3.640000e+02 | 3.780000e+02 |   3.85%|  69.94%
 time | node  | left  |LP iter|LP it/n|mem/heur|mdpt |vars |cons |rows |cuts |sepa|confs|strbr|  dualbound   | primalbound  |  gap   | compl. 
 27.9s|   400 |     7 | 12082 |  26.4 |   128M |  34 |1520 |8202 |6070 | 346 |  0 |2844 |2465 | 3.640000e+02 | 3.780000e+02 |   3.85%|  69.94%
 29.7s|   500 |    10 | 13973 |  24.9 |   129M |  36 |1520 |8371 |6070 | 348 |  2 |3147 |2642 | 3.660000e+02 | 3.780000e+02 |   3.28%|  70.92%

SCIP Status        : problem is solved [optimal solution found]
Solving Time (sec) : 31.45
Solving Nodes      : 576
Primal Bound       : +3.78000000000000e+02 (2 solutions)
Dual Bound         : +3.78000000000000e+02
Gap                : 0.00 %
SCIP Status        : problem is solved [optimal solution found]
Total Time         :      31.56
  solving          :      31.45
  presolving       :       1.02 (included in solving)
  reading          :       0.10
  copying          :       0.21 (11 #copies) (minimal 0.02, maximal 0.02, average 0.02)
Original Problem   :
  Problem name     : neos-1109824
  Variables        : 1520 (1520 binary, 0 integer, 0 implicit integer, 0 continuous)
  Constraints      : 28979 initial, 28979 maximal
  Objective        : minimize, 1512 non-zeros (abs.min = 3, abs.max = 83)
Presolved Problem  :
  Problem name     : t_neos-1109824
  Variables        : 1520 (1520 binary, 0 integer, 0 implicit integer, 0 continuous)
  Constraints      : 9988 initial, 10021 maximal
  Objective        : minimize, 1512 non-zeros (abs.min = 3, abs.max = 83)
  Nonzeros         : 40868 constraint, 57203 clique table
Presolvers         :   ExecTime  SetupTime  Calls  FixedVars   AggrVars   ChgTypes  ChgBounds   AddHoles    DelCons    AddCons   ChgSides   ChgCoefs
  boundshift       :       0.00       0.00      0          0          0          0          0          0          0          0          0          0
  convertinttobin  :       0.00       0.00      0          0          0          0          0          0          0          0          0          0
  domcol           :       0.01       0.00      2          0          0          0          0          0          0          0          0          0
  dualagg          :       0.00       0.00      0          0          0          0          0          0          0          0          0          0
  dualcomp         :       0.00       0.00      0          0          0          0          0          0          0          0          0          0
  dualinfer        :       0.00       0.00      0          0          0          0          0          0          0          0          0          0
  dualsparsify     :       0.01       0.00      1          0          0          0          0          0          0          0          0          0
  gateextraction   :       0.01       0.00      2          0          0          0          0          0          0          0          0          0
  implics          :       0.00       0.00      4          0          0          0          0          0          0          0          0          0
  inttobinary      :       0.00       0.00      0          0          0          0          0          0          0          0          0          0
  qpkktref         :       0.00       0.00      0          0          0          0          0          0          0          0          0          0
  redvub           :       0.00       0.00      0          0          0          0          0          0          0          0          0          0
  sparsify         :       0.04       0.00      1          0          0          0          0          0          0          0          0          0
  stuffing         :       0.00       0.00      0          0          0          0          0          0          0          0          0          0
  trivial          :       0.00       0.00      4          0          0          0          0          0          0          0          0          0
  tworowbnd        :       0.00       0.00      0          0          0          0          0          0          0          0          0          0
  dualfix          :       0.00       0.00      4          0          0          0          0          0          0          0          0          0
  genvbounds       :       0.00       0.00      0          0          0          0          0          0          0          0          0          0
  probing          :       0.78       0.00      1          0          0          0          0          0          0          0          0          0
  pseudoobj        :       0.00       0.00      0          0          0          0          0          0          0          0          0          0
  symmetry         :       0.04       0.00      1          0          0          0          0          0          0          9          0          0
  vbounds          :       0.00       0.00      2          0          0          0          0          0          0          0          0          0
  knapsack         :       0.00       0.00      0          0          0          0          0          0          0          0          0          0
  setppc           :       0.00       0.00      6          0          0          0          0          0          0          0          0          0
  linear           :       0.07       0.01      8          0          0          0          0          0      19000          0          0          0
  orbisack         :       0.00       0.00      1          0          0          0          0          0          0          0          0          0
  symretope        :       0.00       0.00      1          0          0          0          0          0          0          0          0          0
  logicor          :       0.04       0.00      6          0          0          0          0          0          0          0          0          0
  benders          :       0.00       0.00      0          0          0          0          0          0          0          0          0          0
  components       :       0.00       0.00      1          0          0          0          0          0          0          0          0          0
  root node        :          -          -      -        432          -          -        432          -          -          -          -          -
Constraints        :     Number  MaxNumber  #Separate #Propagate    #EnfoLP    #EnfoRelax  #EnfoPS    #Check   #ResProp    Cutoffs    DomReds       Cuts    Applied      Conss   Children
  benderslp        :          0          0          0          0        975          0          0         78          0          0          0          0          0          0          0
  integral         :          0          0          0          0        975          0          0         78          0          0       2131          0          0       2743        580
  knapsack         :          0+        16          0      11970          0          0          0          0       1831          9        823          0          0          0          0
  setppc           :        783+       788         20      18547          0          0          0         73      40083         84       8553          1          1          0          0
  linear           :         76+        80         20      18463          0          0          0          3      15183        191       8198          0          0          0          0
  orbisack         :          7          7          0        579          0          0          0          3        741         23        200          0          0          0          0
  symretope        :          2          2          0       1593          0          0          0          3        262          5        119          0          0          0          0
  logicor          :       9120+      9148         20      10016          0          0          0          3       4459        207       1396          5          2          0          0
  benders          :          0          0          0          0          0          0          0          3          0          0          0          0          0          0          0
  countsols        :          0          0          0          0          0          0          0          3          0          0          0          0          0          0          0
  components       :          0          0          0          0          0          0          0          0          0          0          0          0          0          0          0
Constraint Timings :  TotalTime  SetupTime   Separate  Propagate     EnfoLP     EnfoPS     EnfoRelax   Check    ResProp    SB-Prop
  benderslp        :       0.00       0.00       0.00       0.00       0.00       0.00       0.00       0.00       0.00       0.00
  integral         :      16.73       0.00       0.00       0.00      16.73       0.00       0.00       0.00       0.00       0.00
  knapsack         :       0.04       0.00       0.00       0.01       0.00       0.00       0.00       0.00       0.01       0.02
  setppc           :       0.29       0.00       0.00       0.08       0.00       0.00       0.00       0.00       0.01       0.19
  linear           :       0.45       0.01       0.03       0.19       0.00       0.00       0.00       0.00       0.05       0.18
  orbisack         :       0.01       0.00       0.00       0.00       0.00       0.00       0.00       0.00       0.00       0.01
  symretope        :       0.02       0.00       0.00       0.00       0.00       0.00       0.00       0.00       0.00       0.01
  logicor          :       0.68       0.00       0.04       0.37       0.00       0.00       0.00       0.00       0.01       0.25
  benders          :       0.00       0.00       0.00       0.00       0.00       0.00       0.00       0.00       0.00       0.00
  countsols        :       0.00       0.00       0.00       0.00       0.00       0.00       0.00       0.00       0.00       0.00
  components       :       0.00       0.00       0.00       0.00       0.00       0.00       0.00       0.00       0.00       0.00
Propagators        : #Propagate   #ResProp    Cutoffs    DomReds
  dualfix          :          3          0          0          0
  genvbounds       :          0          0          0          0
  nlobbt           :          0          0          0          0
  obbt             :          0          0          0          0
  probing          :          0          0          0          0
  pseudoobj        :       4763          0          0          0
  redcost          :       3177          0          0      33597
  rootredcost      :          2          0          0        144
  symmetry         :          0          0          0          0
  vbounds          :       5573          0          0          0
Propagator Timings :  TotalTime  SetupTime   Presolve  Propagate    ResProp    SB-Prop
  dualfix          :       0.00       0.00       0.00       0.00       0.00       0.00
  genvbounds       :       0.00       0.00       0.00       0.00       0.00       0.00
  nlobbt           :       0.00       0.00       0.00       0.00       0.00       0.00
  obbt             :       0.00       0.00       0.00       0.00       0.00       0.00
  probing          :       0.78       0.00       0.78       0.00       0.00       0.00
  pseudoobj        :       0.02       0.00       0.00       0.02       0.00       0.00
  redcost          :       0.27       0.00       0.00       0.27       0.00       0.00
  rootredcost      :       0.00       0.00       0.00       0.00       0.00       0.00
  symmetry         :       0.05       0.00       0.04       0.00       0.00       0.00
  vbounds          :       0.02       0.00       0.00       0.01       0.00       0.00
Orbital fixing     :
  vars fixed to 0  :          0
  vars fixed to 1  :          0
Conflict Analysis  :       Time      Calls    Success    DomReds  Conflicts   Literals    Reconvs ReconvLits   Dualrays   Nonzeros   LP Iters   (pool size: [10000,10000])
  propagation      :       0.07        437        427          -       1589      166.3         91       38.5          -          -          -
  infeasible LP    :       0.03         30         30          -        105      139.1          5       11.4         29       91.6          0
  bound exceed. LP :       3.44       1107        681          -       3138      117.4         13       22.9          0        0.0       7693
  strong branching :       0.00          0          0          -          0        0.0          0        0.0          -          -          0
  pseudo solution  :       0.00          0          0          -          0        0.0          0        0.0          -          -          -
  applied globally :       0.50          -          -          0       3336       60.1          -          -         29          -          -
  applied locally  :          -          -          -          0         53      300.5          -          -          0          -          -
Separators         :   ExecTime  SetupTime      Calls  RootCalls    Cutoffs    DomReds  FoundCuts ViaPoolAdd  DirectAdd    Applied ViaPoolApp  DirectApp      Conss
  cut pool         :       0.13          -        221         40          -          -       1545        765          -          -          -          -          -    (maximal pool size:       1545)
  aggregation      :       0.09       0.00         60         20          0          0          0          0          0          0          0          0          0
  > cmir           :          -          -          -          -          -          -          -          0          0          0          0          0          -
  > flowcover      :          -          -          -          -          -          -          -          0          0          0          0          0          -
  > knapsackcover  :          -          -          -          -          -          -          -          0          0          0          0          0          -
  cgmip            :       0.00       0.00          0          0          0          0          0          0          0          0          0          0          0
  clique           :       0.05       0.00         20         20          0          0         56         61          0         46         46          0          0
  closecuts        :       0.00       0.00          0          0          0          0          0          0          0          0          0          0          0
  convexproj       :       0.00       0.00          0          0          0          0          0          0          0          0          0          0          0
  disjunctive      :       0.00       0.00          0          0          0          0          0          0          0          0          0          0          0
  eccuts           :       0.00       0.00          0          0          0          0          0          0          0          0          0          0          0
  gauge            :       0.00       0.00          0          0          0          0          0          0          0          0          0          0          0
  gomory           :       2.40       0.00         43         10          0          0       1353        493         40        131        130          1          0
  > gomorymi       :          -          -          -          -          -          -          -        136         20         16         15          1          -
  > strongcg       :          -          -          -          -          -          -          -        357         20        115        115          0          -
  impliedbounds    :       0.11       0.00         60         20          0          0          0          0          0          0          0          0          0
  interminor       :       0.00       0.00          0          0          0          0          0          0          0          0          0          0          0
  intobj           :       0.00       0.00          0          0          0          0          0          0          0          0          0          0          0
  mcf              :       0.00       0.00          1          1          0          0          0          0          0          0          0          0          0
  minor            :       0.00       0.00          0          0          0          0          0          0          0          0          0          0          0
  mixing           :       0.00       0.00          0          0          0          0          0          0          0          0          0          0          0
  oddcycle         :       0.00       0.00          0          0          0          0          0          0          0          0          0          0          0
  rapidlearning    :       0.01       0.00          0          0          0          0          0          0          0          0          0          0          0
  rlt              :       0.00       0.00         10         10          0          0          0          0          0          0          0          0          0
  zerohalf         :       0.09       0.00         53         20          0          0        189        211         13        179        172          7          0
Cutselectors       :   ExecTime  SetupTime      Calls  RootCalls   Selected     Forced   Filtered  RootSelec   RootForc   RootFilt 
  hybrid           :       0.00       0.00         82         21        359          0        465        178          0        258
Pricers            :   ExecTime  SetupTime      Calls       Vars
  problem variables:       0.00          -          0          0
Branching Rules    :   ExecTime  SetupTime   BranchLP  BranchExt   BranchPS    Cutoffs    DomReds       Cuts      Conss   Children
  allfullstrong    :       0.00       0.00          0          0          0          0          0          0          0          0
  cloud            :       0.00       0.00          0          0          0          0          0          0          0          0
  distribution     :       0.00       0.00          0          0          0          0          0          0          0          0
  fullstrong       :       0.00       0.00          0          0          0          0          0          0          0          0
  inference        :       0.00       0.00          0          0          0          0          0          0          0          0
  leastinf         :       0.00       0.00          0          0          0          0          0          0          0          0
  lookahead        :       0.00       0.00          0          0          0          0          0          0          0          0
  mostinf          :       0.00       0.00          0          0          0          0          0          0          0          0
  multaggr         :       0.00       0.00          0          0          0          0          0          0          0          0
  nodereopt        :       0.00       0.00          0          0          0          0          0          0          0          0
  pscost           :       0.00       0.00          0          0          0          0          0          0          0          0
  random           :       0.00       0.00          0          0          0          0          0          0          0          0
  relpscost        :      16.73       0.00        975          0          0          0       2131          0       3050        580
  vanillafullstrong:       0.00       0.00          0          0          0          0          0          0          0          0
Primal Heuristics  :   ExecTime  SetupTime      Calls      Found       Best
  LP solutions     :       0.00          -          -          0          0
  relax solutions  :       0.00          -          -          0          0
  pseudo solutions :       0.00          -          -          0          0
  strong branching :       0.02          -          -          1          1
  actconsdiving    :       0.00       0.00          0          0          0
  adaptivediving   :       0.00       0.00          0          0          0
  alns             :       0.22       0.00          5          0          0
  bound            :       0.00       0.00          0          0          0
  clique           :       0.04       0.00          1          0          0
  coefdiving       :       0.00       0.00          0          0          0
  completesol      :       0.00       0.00          0          0          0
  conflictdiving   :       0.03       0.00          1          1          1
  crossover        :       0.00       0.00          0          0          0
  dins             :       0.00       0.00          0          0          0
  distributiondivin:       0.02       0.00          0          0          0
  dps              :       0.00       0.00          0          0          0
  dualval          :       0.00       0.00          0          0          0
  farkasdiving     :       0.97       0.00          1          0          0
  feaspump         :       0.20       0.00          1          0          0
  fixandinfer      :       0.00       0.00          0          0          0
  fracdiving       :       0.00       0.00          0          0          0
  gins             :       0.00       0.00          0          0          0
  guideddiving     :       0.00       0.00          0          0          0
  indicator        :       0.00       0.00          0          0          0
  intdiving        :       0.00       0.00          0          0          0
  intshifting      :       0.00       0.00          0          0          0
  linesearchdiving :       0.00       0.00          0          0          0
  localbranching   :       0.00       0.00          0          0          0
  locks            :       0.01       0.00          1          0          0
  lpface           :       1.43       0.00          1          0          0
  mpec             :       0.00       0.00          0          0          0
  multistart       :       0.00       0.00          0          0          0
  mutation         :       0.00       0.00          0          0          0
  nlpdiving        :       0.00       0.00          0          0          0
  objpscostdiving  :       0.00       0.00          0          0          0
  octane           :       0.00       0.00          0          0          0
  ofins            :       0.00       0.00          0          0          0
  oneopt           :       0.00       0.00          2          0          0
  padm             :       0.00       0.00          0          0          0
  proximity        :       0.00       0.00          0          0          0
  pscostdiving     :       0.00       0.00          0          0          0
  randrounding     :       0.11       0.00         84          0          0
  rens             :       0.04       0.00          1          0          0
  reoptsols        :       0.00       0.00          0          0          0
  repair           :       0.00       0.00          0          0          0
  rins             :       0.21       0.00          5          0          0
  rootsoldiving    :       0.00       0.00          0          0          0
  rounding         :       0.14       0.00        444          0          0
  shiftandpropagate:       0.01       0.00          1          0          0
  shifting         :       0.09       0.00        135          0          0
  simplerounding   :       0.00       0.00          0          0          0
  subnlp           :       0.00       0.00          0          0          0
  trivial          :       0.00       0.00          2          0          0
  trivialnegation  :       0.00       0.00          0          0          0
  trustregion      :       0.00       0.00          0          0          0
  trysol           :       0.00       0.00          0          0          0
  twoopt           :       0.00       0.00          0          0          0
  undercover       :       0.00       0.00          0          0          0
  vbounds          :       0.03       0.00          1          0          0
  veclendiving     :       0.00       0.00          0          0          0
  zeroobj          :       0.00       0.00          0          0          0
  zirounding       :       0.01       0.00        290          0          0
  other solutions  :          -          -          -          0          -
LP                 :       Time      Calls Iterations  Iter/call   Iter/sec  Time-0-It Calls-0-It    ItLimit
  primal LP        :       0.23         32          0       0.00       0.00       0.23         32
  dual LP          :       3.92       2311      13251       9.63    3384.05       0.43        935
  lex dual LP      :       0.00          0          0       0.00          -
  barrier LP       :       0.00          0          0       0.00          -       0.00          0
  resolve instable :       0.00          0          0       0.00          -
  diving/probing LP:       1.77        324       2533       7.82    1427.68
  strong branching :       8.51       2803      40405      14.41    4746.97          -          -        307
    (at root node) :          -         26        997      38.35          -
  conflict analysis:       2.16        813       7693       9.46    3562.83
B&B Tree           :
  number of runs   :          1
  nodes            :        576 (290 internal, 286 leaves)
  feasible leaves  :          0
  infeas. leaves   :         72
  objective leaves :        214
  nodes (total)    :        576 (290 internal, 286 leaves)
  nodes left       :          0
  max depth        :         36
  max depth (total):         36
  backtracks       :         83 (14.4%)
  early backtracks :          0 (0.0%)
  nodes exc. ref.  :          0 (0.0%)
  delayed cutoffs  :          5
  repropagations   :        200 (303 domain reductions, 5 cutoffs)
  avg switch length:       3.01
  switching time   :       0.42
Root Node          :
  First LP value   : +2.78000000000000e+02
  First LP Iters   :        135 (5061.68 Iter/sec)
  First LP Time    :       0.03
  Final Dual Bound : +3.47250000000000e+02
  Final Root Iters :       1556
  Root LP Estimate : +3.65579105309011e+02
Solution           :
  Solutions found  :          2 (2 improvements)
  First Solution   : +3.84000000000000e+02   (in run 1, after 1 nodes, 4.26 seconds, depth 11, found by <conflictdiving>)
  Gap First Sol.   :      10.98 %
  Gap Last Sol.    :       7.31 %
  Primal Bound     : +3.78000000000000e+02   (in run 1, after 31 nodes, 8.99 seconds, depth 6, found by <relaxation>)
  Dual Bound       : +3.78000000000000e+02
  Gap              :       0.00 %
Integrals          :      Total       Avg%
  primal-dual      :     554.62      17.63
  primal-ref       :          -          - (not evaluated)
  dual-ref         :          -          - (not evaluated)
written solution information to file <results/final_miplib_symretope_if_extended_generating_set_cpx_v802__settings_final_nopeek_norelabel_extend_norestarts__3__neos-1109824.mps.gz.sol>
@04 1686663665
